;; Mutation-Based Equivalence Benchmark
;; Source:     AutomatArk / instance02269.smt2
;; Mutations:  literal_char_inc, plus_to_star, intersect_no_alnum3
;; Status:     sat
;;
;; Original regex vs mutated regex
;; Equivalence check: unsat ⟺ L(R1) = L(R2)

(set-info :smt-lib-version 2.6)
(set-info :category "mutation")
(set-info :status sat)
(set-logic QF_S)

(declare-const x String)

;; R1: original
;; R2: mutated (literal_char_inc, plus_to_star, intersect_no_alnum3)
(assert
  (str.in_re x
    (re.union (re.inter (re.++ (str.to_re "ClientsConnected-") (re.+ (re.range "0" "9")) (str.to_re "online-casino-searcher.com") (re.+ (re.union (str.to_re " ") (str.to_re "\u{9}") (str.to_re "\u{a}") (str.to_re "\u{c}") (str.to_re "\u{d}"))) (str.to_re "Warezxmlns:\u{a}")) (re.comp (re.++ (re.inter (str.to_re "ClientsConnected-") (re.comp (re.++ re.all ((_ re.loop 3 3) (re.union (re.range "a" "z") (re.range "A" "Z") (re.range "0" "9"))) re.all))) (re.* (re.range "0" "9")) (str.to_re "online-casino-searcher.con") (re.+ (re.union (str.to_re " ") (str.to_re "\u{9}") (str.to_re "\u{a}") (str.to_re "\u{c}") (str.to_re "\u{d}"))) (str.to_re "Warezxmlns:\u{a}")))) (re.inter (re.comp (re.++ (str.to_re "ClientsConnected-") (re.+ (re.range "0" "9")) (str.to_re "online-casino-searcher.com") (re.+ (re.union (str.to_re " ") (str.to_re "\u{9}") (str.to_re "\u{a}") (str.to_re "\u{c}") (str.to_re "\u{d}"))) (str.to_re "Warezxmlns:\u{a}"))) (re.++ (re.inter (str.to_re "ClientsConnected-") (re.comp (re.++ re.all ((_ re.loop 3 3) (re.union (re.range "a" "z") (re.range "A" "Z") (re.range "0" "9"))) re.all))) (re.* (re.range "0" "9")) (str.to_re "online-casino-searcher.con") (re.+ (re.union (str.to_re " ") (str.to_re "\u{9}") (str.to_re "\u{a}") (str.to_re "\u{c}") (str.to_re "\u{d}"))) (str.to_re "Warezxmlns:\u{a}"))))))

(check-sat)
(exit)
